Route #1: 47 72 50 22 68 86 55 14
Route #2: 45 54 104 102 10 13 103 93
Route #3: 30 64 41 32 18 70 106 65 95 58
Route #4: 16 77 88 61 52 101 46
Route #5: 80 38 15 59 49 3 84 78
Route #6: 29 94 98 67 85 76 8
Route #7: 34 53 23
Route #8: 40 51 82 7 71 66 81 60
Route #9: 26 48 62 5 99 24 31 96
Route #10: 69 39 90 43 4 56 33 74 36
Route #11: 57 21 17 11 42 19 87
Route #12: 79 20 28 89 92 37 9 100
Route #13: 44 75 12 35 73 83 97
Route #14: 63 27 91 25 105 2 6
